(set-logic QF_S)
(declare-fun G () String)
(declare-fun F () String)
(declare-fun H () String)
(assert (= (str.++  F F F F "a" F F F F "b" G F "b" G)  (str.++  "aaaa" F F "a" F "ab" H H "baa") ))
(check-sat)
(get-model)
